p cnf 20 7
a 1 0
e 2 3 4 0
a 5 0
e 6 0
a 7 0
e 8 9 10 11 0
a 12 0
e 13 0
a 14 15 16 17 18 19 0
e 20 0
11 17 8 -4 0
-13 -7 12 6 0
-13 -10 5 6 11 0
-15 6 14 -17 4 0
-1 18 -16 0
17 -14 -13 -10 -15 0
17 -10 6 -14 -7 0
